p cnf 195 821
-1 -33 0
-2 -33 0
1 2 33 0
1 2 -34 0
-1 -2 -34 0
-1 2 34 0
1 -2 34 0
33 -35 0
-3 -35 0
3 -33 35 0
3 -33 -36 0
-3 33 -36 0
3 33 36 0
-3 -33 36 0
35 -37 0
-4 -37 0
4 -35 37 0
4 -35 -38 0
-4 35 -38 0
4 35 38 0
-4 -35 38 0
37 -39 0
-5 -39 0
5 -37 39 0
5 -37 -40 0
-5 37 -40 0
5 37 40 0
-5 -37 40 0
39 -41 0
-6 -41 0
6 -39 41 0
6 -39 -42 0
-6 39 -42 0
6 39 42 0
-6 -39 42 0
41 -43 0
-7 -43 0
7 -41 43 0
7 -41 -44 0
-7 41 -44 0
7 41 44 0
-7 -41 44 0
43 -45 0
-8 -45 0
8 -43 45 0
8 -43 -46 0
-8 43 -46 0
8 43 46 0
-8 -43 46 0
2 -47 0
1 -47 0
-1 -2 47 0
-1 -2 -48 0
1 2 -48 0
1 -2 48 0
-1 2 48 0
-2 -3 49 0
-3 -47 49 0
-2 -47 49 0
2 3 -49 0
3 47 -49 0
2 47 -49 0
3 -49 -50 0
2 -49 -50 0
47 -49 -50 0
-3 49 50 0
-2 49 50 0
-47 49 50 0
-2 -3 -47 50 0
2 3 47 -50 0
-3 -4 51 0
-4 -49 51 0
-3 -49 51 0
3 4 -51 0
4 49 -51 0
3 49 -51 0
4 -51 -52 0
3 -51 -52 0
49 -51 -52 0
-4 51 52 0
-3 51 52 0
-49 51 52 0
-3 -4 -49 52 0
3 4 49 -52 0
-4 -5 53 0
-5 -51 53 0
-4 -51 53 0
4 5 -53 0
5 51 -53 0
4 51 -53 0
5 -53 -54 0
4 -53 -54 0
51 -53 -54 0
-5 53 54 0
-4 53 54 0
-51 53 54 0
-4 -5 -51 54 0
4 5 51 -54 0
-5 -6 55 0
-6 -53 55 0
-5 -53 55 0
5 6 -55 0
6 53 -55 0
5 53 -55 0
6 -55 -56 0
5 -55 -56 0
53 -55 -56 0
-6 55 56 0
-5 55 56 0
-53 55 56 0
-5 -6 -53 56 0
5 6 53 -56 0
-6 -7 57 0
-7 -55 57 0
-6 -55 57 0
6 7 -57 0
7 55 -57 0
6 55 -57 0
7 -57 -58 0
6 -57 -58 0
55 -57 -58 0
-7 57 58 0
-6 57 58 0
-55 57 58 0
-6 -7 -55 58 0
6 7 55 -58 0
-7 -8 59 0
-8 -57 59 0
-7 -57 59 0
7 8 -59 0
8 57 -59 0
7 57 -59 0
8 -59 -60 0
7 -59 -60 0
57 -59 -60 0
-8 59 60 0
-7 59 60 0
-57 59 60 0
-7 -8 -57 60 0
7 8 57 -60 0
8 -61 0
59 -61 0
-8 -59 61 0
-8 -59 -62 0
8 59 -62 0
-8 59 62 0
8 -59 62 0
50 -63 0
1 -63 0
-1 -50 63 0
-1 -50 -64 0
1 50 -64 0
1 -50 64 0
-1 50 64 0
-2 -52 65 0
-52 -63 65 0
-2 -63 65 0
2 52 -65 0
52 63 -65 0
2 63 -65 0
52 -65 -66 0
2 -65 -66 0
63 -65 -66 0
-52 65 66 0
-2 65 66 0
-63 65 66 0
-2 -52 -63 66 0
2 52 63 -66 0
-3 -54 67 0
-54 -65 67 0
-3 -65 67 0
3 54 -67 0
54 65 -67 0
3 65 -67 0
54 -67 -68 0
3 -67 -68 0
65 -67 -68 0
-54 67 68 0
-3 67 68 0
-65 67 68 0
-3 -54 -65 68 0
3 54 65 -68 0
-4 -56 69 0
-56 -67 69 0
-4 -67 69 0
4 56 -69 0
56 67 -69 0
4 67 -69 0
56 -69 -70 0
4 -69 -70 0
67 -69 -70 0
-56 69 70 0
-4 69 70 0
-67 69 70 0
-4 -56 -67 70 0
4 56 67 -70 0
-5 -58 71 0
-58 -69 71 0
-5 -69 71 0
5 58 -71 0
58 69 -71 0
5 69 -71 0
58 -71 -72 0
5 -71 -72 0
69 -71 -72 0
-58 71 72 0
-5 71 72 0
-69 71 72 0
-5 -58 -69 72 0
5 58 69 -72 0
-6 -60 73 0
-60 -71 73 0
-6 -71 73 0
6 60 -73 0
60 71 -73 0
6 71 -73 0
60 -73 -74 0
6 -73 -74 0
71 -73 -74 0
-60 73 74 0
-6 73 74 0
-71 73 74 0
-6 -60 -71 74 0
6 60 71 -74 0
-7 -62 75 0
-62 -73 75 0
-7 -73 75 0
7 62 -75 0
62 73 -75 0
7 73 -75 0
62 -75 -76 0
7 -75 -76 0
73 -75 -76 0
-62 75 76 0
-7 75 76 0
-73 75 76 0
-7 -62 -73 76 0
7 62 73 -76 0
-8 -61 77 0
-61 -75 77 0
-8 -75 77 0
8 61 -77 0
61 75 -77 0
8 75 -77 0
61 -77 -78 0
8 -77 -78 0
75 -77 -78 0
-61 77 78 0
-8 77 78 0
-75 77 78 0
-8 -61 -75 78 0
8 61 75 -78 0
66 -79 0
1 -79 0
-1 -66 79 0
-1 -66 -80 0
1 66 -80 0
1 -66 80 0
-1 66 80 0
-2 -68 81 0
-68 -79 81 0
-2 -79 81 0
2 68 -81 0
68 79 -81 0
2 79 -81 0
68 -81 -82 0
2 -81 -82 0
79 -81 -82 0
-68 81 82 0
-2 81 82 0
-79 81 82 0
-2 -68 -79 82 0
2 68 79 -82 0
-3 -70 83 0
-70 -81 83 0
-3 -81 83 0
3 70 -83 0
70 81 -83 0
3 81 -83 0
70 -83 -84 0
3 -83 -84 0
81 -83 -84 0
-70 83 84 0
-3 83 84 0
-81 83 84 0
-3 -70 -81 84 0
3 70 81 -84 0
-4 -72 85 0
-72 -83 85 0
-4 -83 85 0
4 72 -85 0
72 83 -85 0
4 83 -85 0
72 -85 -86 0
4 -85 -86 0
83 -85 -86 0
-72 85 86 0
-4 85 86 0
-83 85 86 0
-4 -72 -83 86 0
4 72 83 -86 0
-5 -74 87 0
-74 -85 87 0
-5 -85 87 0
5 74 -87 0
74 85 -87 0
5 85 -87 0
74 -87 -88 0
5 -87 -88 0
85 -87 -88 0
-74 87 88 0
-5 87 88 0
-85 87 88 0
-5 -74 -85 88 0
5 74 85 -88 0
-6 -76 89 0
-76 -87 89 0
-6 -87 89 0
6 76 -89 0
76 87 -89 0
6 87 -89 0
76 -89 -90 0
6 -89 -90 0
87 -89 -90 0
-76 89 90 0
-6 89 90 0
-87 89 90 0
-6 -76 -87 90 0
6 76 87 -90 0
-7 -78 91 0
-78 -89 91 0
-7 -89 91 0
7 78 -91 0
78 89 -91 0
7 89 -91 0
78 -91 -92 0
7 -91 -92 0
89 -91 -92 0
-78 91 92 0
-7 91 92 0
-89 91 92 0
-7 -78 -89 92 0
7 78 89 -92 0
-8 -77 93 0
-77 -91 93 0
-8 -91 93 0
8 77 -93 0
77 91 -93 0
8 91 -93 0
77 -93 -94 0
8 -93 -94 0
91 -93 -94 0
-77 93 94 0
-8 93 94 0
-91 93 94 0
-8 -77 -91 94 0
8 77 91 -94 0
-1 -95 0
-48 -95 0
1 48 95 0
1 48 -96 0
-1 -48 -96 0
-1 48 96 0
1 -48 96 0
95 -97 0
-64 -97 0
64 -95 97 0
64 -95 -98 0
-64 95 -98 0
64 95 98 0
-64 -95 98 0
97 -99 0
-80 -99 0
80 -97 99 0
80 -97 -100 0
-80 97 -100 0
80 97 100 0
-80 -97 100 0
99 -101 0
-82 -101 0
82 -99 101 0
82 -99 -102 0
-82 99 -102 0
82 99 102 0
-82 -99 102 0
101 -103 0
-84 -103 0
84 -101 103 0
84 -101 -104 0
-84 101 -104 0
84 101 104 0
-84 -101 104 0
103 -105 0
-86 -105 0
86 -103 105 0
86 -103 -106 0
-86 103 -106 0
86 103 106 0
-86 -103 106 0
105 -107 0
-88 -107 0
88 -105 107 0
88 -105 -108 0
-88 105 -108 0
88 105 108 0
-88 -105 108 0
107 -109 0
-90 -109 0
90 -107 109 0
90 -107 -110 0
-90 107 -110 0
90 107 110 0
-90 -107 110 0
109 -111 0
-92 -111 0
92 -109 111 0
92 -109 -112 0
-92 109 -112 0
92 109 112 0
-92 -109 112 0
111 -113 0
-94 -113 0
94 -111 113 0
94 -111 -114 0
-94 111 -114 0
94 111 114 0
-94 -111 114 0
113 -115 0
-93 -115 0
93 -113 115 0
93 -113 -116 0
-93 113 -116 0
93 113 116 0
-93 -113 116 0
-9 -117 0
-10 -117 0
9 10 117 0
9 10 -118 0
-9 -10 -118 0
-9 10 118 0
9 -10 118 0
117 -119 0
-11 -119 0
11 -117 119 0
11 -117 -120 0
-11 117 -120 0
11 117 120 0
-11 -117 120 0
119 -121 0
-12 -121 0
12 -119 121 0
12 -119 -122 0
-12 119 -122 0
12 119 122 0
-12 -119 122 0
121 -123 0
-13 -123 0
13 -121 123 0
13 -121 -124 0
-13 121 -124 0
13 121 124 0
-13 -121 124 0
123 -125 0
-14 -125 0
14 -123 125 0
14 -123 -126 0
-14 123 -126 0
14 123 126 0
-14 -123 126 0
125 -127 0
-15 -127 0
15 -125 127 0
15 -125 -128 0
-15 125 -128 0
15 125 128 0
-15 -125 128 0
127 -129 0
-16 -129 0
16 -127 129 0
16 -127 -130 0
-16 127 -130 0
16 127 130 0
-16 -127 130 0
13 -131 0
9 -131 0
-9 -13 131 0
-9 -13 -132 0
9 13 -132 0
9 -13 132 0
-9 13 132 0
-10 -14 133 0
-14 -131 133 0
-10 -131 133 0
10 14 -133 0
14 131 -133 0
10 131 -133 0
14 -133 -134 0
10 -133 -134 0
131 -133 -134 0
-14 133 134 0
-10 133 134 0
-131 133 134 0
-10 -14 -131 134 0
10 14 131 -134 0
-11 -15 135 0
-15 -133 135 0
-11 -133 135 0
11 15 -135 0
15 133 -135 0
11 133 -135 0
15 -135 -136 0
11 -135 -136 0
133 -135 -136 0
-15 135 136 0
-11 135 136 0
-133 135 136 0
-11 -15 -133 136 0
11 15 133 -136 0
-12 -16 137 0
-16 -135 137 0
-12 -135 137 0
12 16 -137 0
16 135 -137 0
12 135 -137 0
16 -137 -138 0
12 -137 -138 0
135 -137 -138 0
-16 137 138 0
-12 137 138 0
-135 137 138 0
-12 -16 -135 138 0
12 16 135 -138 0
13 -139 0
137 -139 0
-13 -137 139 0
-13 -137 -140 0
13 137 -140 0
-13 137 140 0
13 -137 140 0
14 -141 0
139 -141 0
-14 -139 141 0
-14 -139 -142 0
14 139 -142 0
-14 139 142 0
14 -139 142 0
15 -143 0
141 -143 0
-15 -141 143 0
-15 -141 -144 0
15 141 -144 0
-15 141 144 0
15 -141 144 0
16 -145 0
143 -145 0
-16 -143 145 0
-16 -143 -146 0
16 143 -146 0
-16 143 146 0
16 -143 146 0
-9 -147 0
-10 -147 0
9 10 147 0
9 10 -148 0
-9 -10 -148 0
-9 10 148 0
9 -10 148 0
147 -149 0
-11 -149 0
11 -147 149 0
11 -147 -150 0
-11 147 -150 0
11 147 150 0
-11 -147 150 0
149 -151 0
-12 -151 0
12 -149 151 0
12 -149 -152 0
-12 149 -152 0
12 149 152 0
-12 -149 152 0
151 -153 0
-132 -153 0
132 -151 153 0
132 -151 -154 0
-132 151 -154 0
132 151 154 0
-132 -151 154 0
153 -155 0
-134 -155 0
134 -153 155 0
134 -153 -156 0
-134 153 -156 0
134 153 156 0
-134 -153 156 0
155 -157 0
-136 -157 0
136 -155 157 0
136 -155 -158 0
-136 155 -158 0
136 155 158 0
-136 -155 158 0
157 -159 0
-138 -159 0
138 -157 159 0
138 -157 -160 0
-138 157 -160 0
138 157 160 0
-138 -157 160 0
159 -161 0
-140 -161 0
140 -159 161 0
140 -159 -162 0
-140 159 -162 0
140 159 162 0
-140 -159 162 0
161 -163 0
-142 -163 0
142 -161 163 0
142 -161 -164 0
-142 161 -164 0
142 161 164 0
-142 -161 164 0
163 -165 0
-144 -165 0
144 -163 165 0
144 -163 -166 0
-144 163 -166 0
144 163 166 0
-144 -163 166 0
165 -167 0
-146 -167 0
146 -165 167 0
146 -165 -168 0
-146 165 -168 0
146 165 168 0
-146 -165 168 0
167 -169 0
-145 -169 0
145 -167 169 0
145 -167 -170 0
-145 167 -170 0
145 167 170 0
-145 -167 170 0
1 -171 0
10 -171 0
-1 -10 171 0
-1 -10 -172 0
1 10 -172 0
-1 10 172 0
1 -10 172 0
-11 -48 173 0
-48 -171 173 0
-11 -171 173 0
11 48 -173 0
48 171 -173 0
11 171 -173 0
48 -173 -174 0
11 -173 -174 0
171 -173 -174 0
-48 173 174 0
-11 173 174 0
-171 173 174 0
-11 -48 -171 174 0
11 48 171 -174 0
-12 -64 175 0
-64 -173 175 0
-12 -173 175 0
12 64 -175 0
64 173 -175 0
12 173 -175 0
64 -175 -176 0
12 -175 -176 0
173 -175 -176 0
-64 175 176 0
-12 175 176 0
-173 175 176 0
-12 -64 -173 176 0
12 64 173 -176 0
-80 -132 177 0
-80 -175 177 0
-132 -175 177 0
80 132 -177 0
80 175 -177 0
132 175 -177 0
80 -177 -178 0
132 -177 -178 0
175 -177 -178 0
-80 177 178 0
-132 177 178 0
-175 177 178 0
-80 -132 -175 178 0
80 132 175 -178 0
-82 -134 179 0
-82 -177 179 0
-134 -177 179 0
82 134 -179 0
82 177 -179 0
134 177 -179 0
82 -179 -180 0
134 -179 -180 0
177 -179 -180 0
-82 179 180 0
-134 179 180 0
-177 179 180 0
-82 -134 -177 180 0
82 134 177 -180 0
-84 -136 181 0
-84 -179 181 0
-136 -179 181 0
84 136 -181 0
84 179 -181 0
136 179 -181 0
84 -181 -182 0
136 -181 -182 0
179 -181 -182 0
-84 181 182 0
-136 181 182 0
-179 181 182 0
-84 -136 -179 182 0
84 136 179 -182 0
-86 -138 183 0
-86 -181 183 0
-138 -181 183 0
86 138 -183 0
86 181 -183 0
138 181 -183 0
86 -183 -184 0
138 -183 -184 0
181 -183 -184 0
-86 183 184 0
-138 183 184 0
-181 183 184 0
-86 -138 -181 184 0
86 138 181 -184 0
-88 -140 185 0
-88 -183 185 0
-140 -183 185 0
88 140 -185 0
88 183 -185 0
140 183 -185 0
88 -185 -186 0
140 -185 -186 0
183 -185 -186 0
-88 185 186 0
-140 185 186 0
-183 185 186 0
-88 -140 -183 186 0
88 140 183 -186 0
-90 -142 187 0
-90 -185 187 0
-142 -185 187 0
90 142 -187 0
90 185 -187 0
142 185 -187 0
90 -187 -188 0
142 -187 -188 0
185 -187 -188 0
-90 187 188 0
-142 187 188 0
-185 187 188 0
-90 -142 -185 188 0
90 142 185 -188 0
-92 -144 189 0
-92 -187 189 0
-144 -187 189 0
92 144 -189 0
92 187 -189 0
144 187 -189 0
92 -189 -190 0
144 -189 -190 0
187 -189 -190 0
-92 189 190 0
-144 189 190 0
-187 189 190 0
-92 -144 -187 190 0
92 144 187 -190 0
-94 -146 191 0
-94 -189 191 0
-146 -189 191 0
94 146 -191 0
94 189 -191 0
146 189 -191 0
94 -191 -192 0
146 -191 -192 0
189 -191 -192 0
-94 191 192 0
-146 191 192 0
-189 191 192 0
-94 -146 -189 192 0
94 146 189 -192 0
-93 -145 193 0
-93 -191 193 0
-145 -191 193 0
93 145 -193 0
93 191 -193 0
145 191 -193 0
93 -193 -194 0
145 -193 -194 0
191 -193 -194 0
-93 193 194 0
-145 193 194 0
-191 193 194 0
-93 -145 -191 194 0
93 145 191 -194 0
9 -195 0
172 -195 0
-174 -195 0
176 -195 0
178 -195 0
180 -195 0
-182 -195 0
-184 -195 0
-186 -195 0
-188 -195 0
-190 -195 0
-192 -195 0
-193 -195 0
-194 -195 0
-9 -172 174 -176 -178 -180 182 184 186 188 190 192 193 194 195 0
195 0
c main::$tmp::return_value_nondet_char!0@1#1 17 18 19 20 21 22 23 24
c symex::nondet1 9 10 11 12 13 14 15 16
c symex::nondet0 1 2 3 4 5 6 7 8
c main::$tmp::return_value_nondet_char$0!0@1#2 9 10 11 12 13 14 15 16
c __CPROVER_rounding_mode!0#1 FALSE FALSE FALSE FALSE FALSE FALSE FALSE FALSE FALSE FALSE FALSE FALSE FALSE FALSE FALSE FALSE FALSE FALSE FALSE FALSE FALSE FALSE FALSE FALSE FALSE FALSE FALSE FALSE FALSE FALSE FALSE FALSE
c main::$tmp::return_value_nondet_char$0!0@1#1 25 26 27 28 29 30 31 32
c __CPROVER_memory_leak#1 FALSE FALSE FALSE FALSE FALSE FALSE FALSE FALSE FALSE FALSE FALSE FALSE FALSE FALSE FALSE FALSE FALSE FALSE FALSE FALSE FALSE FALSE FALSE FALSE FALSE FALSE FALSE FALSE FALSE FALSE FALSE FALSE FALSE FALSE FALSE FALSE FALSE FALSE FALSE FALSE FALSE FALSE FALSE FALSE FALSE FALSE FALSE FALSE FALSE FALSE FALSE FALSE FALSE FALSE FALSE FALSE FALSE FALSE FALSE FALSE FALSE FALSE FALSE FALSE
c __CPROVER_max_malloc_size#1 FALSE FALSE FALSE FALSE FALSE FALSE FALSE FALSE FALSE FALSE FALSE FALSE FALSE FALSE FALSE FALSE FALSE FALSE FALSE FALSE FALSE FALSE FALSE FALSE FALSE FALSE FALSE FALSE FALSE FALSE FALSE FALSE FALSE FALSE FALSE FALSE FALSE FALSE FALSE FALSE FALSE FALSE FALSE FALSE FALSE FALSE FALSE FALSE FALSE FALSE FALSE FALSE FALSE FALSE FALSE TRUE FALSE FALSE FALSE FALSE FALSE FALSE FALSE FALSE
c __CPROVER_deallocated#1 FALSE FALSE FALSE FALSE FALSE FALSE FALSE FALSE FALSE FALSE FALSE FALSE FALSE FALSE FALSE FALSE FALSE FALSE FALSE FALSE FALSE FALSE FALSE FALSE FALSE FALSE FALSE FALSE FALSE FALSE FALSE FALSE FALSE FALSE FALSE FALSE FALSE FALSE FALSE FALSE FALSE FALSE FALSE FALSE FALSE FALSE FALSE FALSE FALSE FALSE FALSE FALSE FALSE FALSE FALSE FALSE FALSE FALSE FALSE FALSE FALSE FALSE FALSE FALSE
c main::$tmp::return_value_nondet_char!0@1#2 1 2 3 4 5 6 7 8
c __CPROVER_dead_object#1 FALSE FALSE FALSE FALSE FALSE FALSE FALSE FALSE FALSE FALSE FALSE FALSE FALSE FALSE FALSE FALSE FALSE FALSE FALSE FALSE FALSE FALSE FALSE FALSE FALSE FALSE FALSE FALSE FALSE FALSE FALSE FALSE FALSE FALSE FALSE FALSE FALSE FALSE FALSE FALSE FALSE FALSE FALSE FALSE FALSE FALSE FALSE FALSE FALSE FALSE FALSE FALSE FALSE FALSE FALSE FALSE FALSE FALSE FALSE FALSE FALSE FALSE FALSE FALSE
